1	4	9	19	24	23	23	23	23	23	23	23	26	25	30	24	16	18	17	17	17	18	17	15	30	31	23	22	22	18	17	21	25	27	33	43	27	26	26	26	26	28	29	31	30	45	38	33	36	40	46	48	54	54	53	59	64	65	66	69	52	52	58	57	52	45	44	36	37	40	42	35	35	34	26	22	22	19	17	17	17	17	10	9	5	10	0	1	5	5	4	4	7	10	10	10	10	10	10	9	5	4	5	5	8	6	4	5	6	4	4	4	4	4	4	5	2	2	2	5	5	6	6	6	6	6	9	9	9	10	11	10	8	8	8	7	7	7	8	8	8	8	8	8	6	5	4	4	0	0	0	0	0	0	0	0	0	0	0	0	0	0	0	0	0	0	0	0	0	0	00	0	0	0	0	0	0	0	0	0	0	0	0	0	0	0	0	0	0	0	0	0	0	0	0	0	0	0	0	0	0	0	0	0	2	2	2	2	2	2	2	1	1	1	2	4	4	2	2	2	2	2	3	3	3	3	3	6	6	6	4	4	4	4	4	4	4	4	5	5	5	4	1	1	1	1	1	1	1	1	1	0	0	0	0	0
0	0	3	5	6	6	6	6	6	6	6	6	6	10	7	5	4	4	4	4	4	4	4	4	9	5	5	5	5	5	4	4	5	5	7	7	3	3	4	4	4	4	4	5	7	8	6	5	5	5	7	8	8	7	9	9	10	9	8	9	8	7	7	7	8	9	5	5	11	11	7	6	6	6	6	6	6	6	6	6	4	0	0	0	0	0
0	1	5	5	1	1	0	0	0	0	0	0	0	0	0	0	1	1	1	0	0	0	0	0	0	0	0	0	0	0	0	0	0	0	1	1	1	1	1	1	1	1	1	1	1	1	0	0	0	0	0	0	0	0	0	0	0	0	0	0	0	0	0	0	0	0	0	0	0	0	0	0	0	0	0	0	0	0	0	0	0	0	0	0	0	00	1	4	5	13	14	15	15	15	15	15	15	13	15	5	4	4	4	5	5	9	10	6	6	7	9	9	9	9	10	10	14	11	10	9	9	12	11	10	9	9	10	10	9	6	9	8	7	4	4	4	4	4	4	4	4	3	5	7	7	5	5	5	5	5	5	5	6	6	6	5	10	9	7	6	6	6	6	6	6	5	5	5	0	0	0
0	0	3	7	7	8	9	9	9	10	15	15	15	16	12	6	6	6	6	6	6	6	6	6	12	6	6	6	6	6	6	6	11	11	13	14	10	9	7	7	7	8	8	11	7	7	7	6	6	6	6	6	6	6	6	6	11	12	8	8	7	7	7	7	7	6	6	6	6	11	11	6	6	6	6	6	6	6	6	6	6	5	1	0	0	00	0	4	5	5	5	4	4	4	3	3	3	8	8	6	5	5	5	5	5	5	5	5	5	0	0	0	0	0	0	0	0	3	3	3	3	3	3	3	3	3	3	4	7	5	4	4	4	4	4	4	4	4	4	4	5	8	7	4	4	4	4	4	4	4	4	4	4	5	5	1	1	3	2	2	2	2	2	2	2	2	2	2	2	0	0